-1 1 0.0
86 2 5.0
2 3 2.0
95 4 3.0
6 5 7.0
73 6 2.0
34 7 2.0
17 8 1.0
10 9 2.0
67 10 2.0
12 11 1.0
3 12 4.0
14 13 1.0
91 14 2.0
60 15 1.0
17 16 10.0
100 17 3.0
17 18 3.0
74 19 2.0
19 20 3.0
97 21 6.0
6 22 3.0
29 23 4.0
30 24 2.0
26 25 6.0
67 26 1.0
26 27 10.0
80 28 2.0
67 29 1.0
31 30 2.0
26 31 1.0
31 32 5.0
32 33 5.0
61 34 2.0
80 35 2.0
37 36 1.0
24 37 1.0
92 38 2.0
40 39 4.0
8 40 3.0
52 41 3.0
41 42 10.0
44 43 3.0
45 44 7.0
72 45 4.0
89 46 8.0
48 47 6.0
61 48 2.0
50 49 9.0
59 50 3.0
4 51 4.0
53 52 5.0
48 53 2.0
53 54 5.0
87 55 2.0
57 56 3.0
86 57 1.0
98 58 1.0
62 59 3.0
72 60 1.0
29 61 2.0
73 62 4.0
51 63 2.0
67 64 1.0
64 65 4.0
67 66 7.0
8 67 1.0
67 68 3.0
68 69 7.0
69 70 8.0
72 71 4.0
29 72 2.0
8 73 1.0
73 74 2.0
63 75 2.0
75 76 1.0
26 77 6.0
79 78 5.0
8 79 2.0
79 80 1.0
48 81 2.0
55 82 1.0
84 83 8.0
98 84 2.0
10 85 5.0
61 86 2.0
15 87 2.0
87 88 4.0
67 89 1.0
91 90 5.0
24 91 1.0
51 92 7.0
30 93 1.0
37 94 1.0
39 95 2.0
97 96 3.0
68 97 5.0
62 98 3.0
98 99 3.0
1 100 12.0
Peso Total da MST = 336.0
